c *********************************
c * Circuit generated by BenCGen
c *
c * RippleCarryAdder_35_35_35_InOutT
c *
c * Ports with 1 gate(s): 1
c * Ports with 2 gate(s): 176
c * Total gates: 177
c *********************************
p cnf 247 600
1 108 0
-1 -108 0
1 -107 0
108 -107 0
-1 -108 107 0
1 36 -110 0
-1 36 110 0
1 -36 110 0
-1 -36 -110 0
110 107 -71 0
-110 107 71 0
110 -107 71 0
-110 -107 -71 0
107 -111 0
110 -111 0
-107 -110 111 0
36 -112 0
1 -112 0
-36 -1 112 0
-111 109 0
-112 109 0
111 112 -109 0
2 37 -114 0
-2 37 114 0
2 -37 114 0
-2 -37 -114 0
114 109 -72 0
-114 109 72 0
114 -109 72 0
-114 -109 -72 0
109 -115 0
114 -115 0
-109 -114 115 0
37 -116 0
2 -116 0
-37 -2 116 0
-115 113 0
-116 113 0
115 116 -113 0
3 38 -118 0
-3 38 118 0
3 -38 118 0
-3 -38 -118 0
118 113 -73 0
-118 113 73 0
118 -113 73 0
-118 -113 -73 0
113 -119 0
118 -119 0
-113 -118 119 0
38 -120 0
3 -120 0
-38 -3 120 0
-119 117 0
-120 117 0
119 120 -117 0
4 39 -122 0
-4 39 122 0
4 -39 122 0
-4 -39 -122 0
122 117 -74 0
-122 117 74 0
122 -117 74 0
-122 -117 -74 0
117 -123 0
122 -123 0
-117 -122 123 0
39 -124 0
4 -124 0
-39 -4 124 0
-123 121 0
-124 121 0
123 124 -121 0
5 40 -126 0
-5 40 126 0
5 -40 126 0
-5 -40 -126 0
126 121 -75 0
-126 121 75 0
126 -121 75 0
-126 -121 -75 0
121 -127 0
126 -127 0
-121 -126 127 0
40 -128 0
5 -128 0
-40 -5 128 0
-127 125 0
-128 125 0
127 128 -125 0
6 41 -130 0
-6 41 130 0
6 -41 130 0
-6 -41 -130 0
130 125 -76 0
-130 125 76 0
130 -125 76 0
-130 -125 -76 0
125 -131 0
130 -131 0
-125 -130 131 0
41 -132 0
6 -132 0
-41 -6 132 0
-131 129 0
-132 129 0
131 132 -129 0
7 42 -134 0
-7 42 134 0
7 -42 134 0
-7 -42 -134 0
134 129 -77 0
-134 129 77 0
134 -129 77 0
-134 -129 -77 0
129 -135 0
134 -135 0
-129 -134 135 0
42 -136 0
7 -136 0
-42 -7 136 0
-135 133 0
-136 133 0
135 136 -133 0
8 43 -138 0
-8 43 138 0
8 -43 138 0
-8 -43 -138 0
138 133 -78 0
-138 133 78 0
138 -133 78 0
-138 -133 -78 0
133 -139 0
138 -139 0
-133 -138 139 0
43 -140 0
8 -140 0
-43 -8 140 0
-139 137 0
-140 137 0
139 140 -137 0
9 44 -142 0
-9 44 142 0
9 -44 142 0
-9 -44 -142 0
142 137 -79 0
-142 137 79 0
142 -137 79 0
-142 -137 -79 0
137 -143 0
142 -143 0
-137 -142 143 0
44 -144 0
9 -144 0
-44 -9 144 0
-143 141 0
-144 141 0
143 144 -141 0
10 45 -146 0
-10 45 146 0
10 -45 146 0
-10 -45 -146 0
146 141 -80 0
-146 141 80 0
146 -141 80 0
-146 -141 -80 0
141 -147 0
146 -147 0
-141 -146 147 0
45 -148 0
10 -148 0
-45 -10 148 0
-147 145 0
-148 145 0
147 148 -145 0
11 46 -150 0
-11 46 150 0
11 -46 150 0
-11 -46 -150 0
150 145 -81 0
-150 145 81 0
150 -145 81 0
-150 -145 -81 0
145 -151 0
150 -151 0
-145 -150 151 0
46 -152 0
11 -152 0
-46 -11 152 0
-151 149 0
-152 149 0
151 152 -149 0
12 47 -154 0
-12 47 154 0
12 -47 154 0
-12 -47 -154 0
154 149 -82 0
-154 149 82 0
154 -149 82 0
-154 -149 -82 0
149 -155 0
154 -155 0
-149 -154 155 0
47 -156 0
12 -156 0
-47 -12 156 0
-155 153 0
-156 153 0
155 156 -153 0
13 48 -158 0
-13 48 158 0
13 -48 158 0
-13 -48 -158 0
158 153 -83 0
-158 153 83 0
158 -153 83 0
-158 -153 -83 0
153 -159 0
158 -159 0
-153 -158 159 0
48 -160 0
13 -160 0
-48 -13 160 0
-159 157 0
-160 157 0
159 160 -157 0
14 49 -162 0
-14 49 162 0
14 -49 162 0
-14 -49 -162 0
162 157 -84 0
-162 157 84 0
162 -157 84 0
-162 -157 -84 0
157 -163 0
162 -163 0
-157 -162 163 0
49 -164 0
14 -164 0
-49 -14 164 0
-163 161 0
-164 161 0
163 164 -161 0
15 50 -166 0
-15 50 166 0
15 -50 166 0
-15 -50 -166 0
166 161 -85 0
-166 161 85 0
166 -161 85 0
-166 -161 -85 0
161 -167 0
166 -167 0
-161 -166 167 0
50 -168 0
15 -168 0
-50 -15 168 0
-167 165 0
-168 165 0
167 168 -165 0
16 51 -170 0
-16 51 170 0
16 -51 170 0
-16 -51 -170 0
170 165 -86 0
-170 165 86 0
170 -165 86 0
-170 -165 -86 0
165 -171 0
170 -171 0
-165 -170 171 0
51 -172 0
16 -172 0
-51 -16 172 0
-171 169 0
-172 169 0
171 172 -169 0
17 52 -174 0
-17 52 174 0
17 -52 174 0
-17 -52 -174 0
174 169 -87 0
-174 169 87 0
174 -169 87 0
-174 -169 -87 0
169 -175 0
174 -175 0
-169 -174 175 0
52 -176 0
17 -176 0
-52 -17 176 0
-175 173 0
-176 173 0
175 176 -173 0
18 53 -178 0
-18 53 178 0
18 -53 178 0
-18 -53 -178 0
178 173 -88 0
-178 173 88 0
178 -173 88 0
-178 -173 -88 0
173 -179 0
178 -179 0
-173 -178 179 0
53 -180 0
18 -180 0
-53 -18 180 0
-179 177 0
-180 177 0
179 180 -177 0
19 54 -182 0
-19 54 182 0
19 -54 182 0
-19 -54 -182 0
182 177 -89 0
-182 177 89 0
182 -177 89 0
-182 -177 -89 0
177 -183 0
182 -183 0
-177 -182 183 0
54 -184 0
19 -184 0
-54 -19 184 0
-183 181 0
-184 181 0
183 184 -181 0
20 55 -186 0
-20 55 186 0
20 -55 186 0
-20 -55 -186 0
186 181 -90 0
-186 181 90 0
186 -181 90 0
-186 -181 -90 0
181 -187 0
186 -187 0
-181 -186 187 0
55 -188 0
20 -188 0
-55 -20 188 0
-187 185 0
-188 185 0
187 188 -185 0
21 56 -190 0
-21 56 190 0
21 -56 190 0
-21 -56 -190 0
190 185 -91 0
-190 185 91 0
190 -185 91 0
-190 -185 -91 0
185 -191 0
190 -191 0
-185 -190 191 0
56 -192 0
21 -192 0
-56 -21 192 0
-191 189 0
-192 189 0
191 192 -189 0
22 57 -194 0
-22 57 194 0
22 -57 194 0
-22 -57 -194 0
194 189 -92 0
-194 189 92 0
194 -189 92 0
-194 -189 -92 0
189 -195 0
194 -195 0
-189 -194 195 0
57 -196 0
22 -196 0
-57 -22 196 0
-195 193 0
-196 193 0
195 196 -193 0
23 58 -198 0
-23 58 198 0
23 -58 198 0
-23 -58 -198 0
198 193 -93 0
-198 193 93 0
198 -193 93 0
-198 -193 -93 0
193 -199 0
198 -199 0
-193 -198 199 0
58 -200 0
23 -200 0
-58 -23 200 0
-199 197 0
-200 197 0
199 200 -197 0
24 59 -202 0
-24 59 202 0
24 -59 202 0
-24 -59 -202 0
202 197 -94 0
-202 197 94 0
202 -197 94 0
-202 -197 -94 0
197 -203 0
202 -203 0
-197 -202 203 0
59 -204 0
24 -204 0
-59 -24 204 0
-203 201 0
-204 201 0
203 204 -201 0
25 60 -206 0
-25 60 206 0
25 -60 206 0
-25 -60 -206 0
206 201 -95 0
-206 201 95 0
206 -201 95 0
-206 -201 -95 0
201 -207 0
206 -207 0
-201 -206 207 0
60 -208 0
25 -208 0
-60 -25 208 0
-207 205 0
-208 205 0
207 208 -205 0
26 61 -210 0
-26 61 210 0
26 -61 210 0
-26 -61 -210 0
210 205 -96 0
-210 205 96 0
210 -205 96 0
-210 -205 -96 0
205 -211 0
210 -211 0
-205 -210 211 0
61 -212 0
26 -212 0
-61 -26 212 0
-211 209 0
-212 209 0
211 212 -209 0
27 62 -214 0
-27 62 214 0
27 -62 214 0
-27 -62 -214 0
214 209 -97 0
-214 209 97 0
214 -209 97 0
-214 -209 -97 0
209 -215 0
214 -215 0
-209 -214 215 0
62 -216 0
27 -216 0
-62 -27 216 0
-215 213 0
-216 213 0
215 216 -213 0
28 63 -218 0
-28 63 218 0
28 -63 218 0
-28 -63 -218 0
218 213 -98 0
-218 213 98 0
218 -213 98 0
-218 -213 -98 0
213 -219 0
218 -219 0
-213 -218 219 0
63 -220 0
28 -220 0
-63 -28 220 0
-219 217 0
-220 217 0
219 220 -217 0
29 64 -222 0
-29 64 222 0
29 -64 222 0
-29 -64 -222 0
222 217 -99 0
-222 217 99 0
222 -217 99 0
-222 -217 -99 0
217 -223 0
222 -223 0
-217 -222 223 0
64 -224 0
29 -224 0
-64 -29 224 0
-223 221 0
-224 221 0
223 224 -221 0
30 65 -226 0
-30 65 226 0
30 -65 226 0
-30 -65 -226 0
226 221 -100 0
-226 221 100 0
226 -221 100 0
-226 -221 -100 0
221 -227 0
226 -227 0
-221 -226 227 0
65 -228 0
30 -228 0
-65 -30 228 0
-227 225 0
-228 225 0
227 228 -225 0
31 66 -230 0
-31 66 230 0
31 -66 230 0
-31 -66 -230 0
230 225 -101 0
-230 225 101 0
230 -225 101 0
-230 -225 -101 0
225 -231 0
230 -231 0
-225 -230 231 0
66 -232 0
31 -232 0
-66 -31 232 0
-231 229 0
-232 229 0
231 232 -229 0
32 67 -234 0
-32 67 234 0
32 -67 234 0
-32 -67 -234 0
234 229 -102 0
-234 229 102 0
234 -229 102 0
-234 -229 -102 0
229 -235 0
234 -235 0
-229 -234 235 0
67 -236 0
32 -236 0
-67 -32 236 0
-235 233 0
-236 233 0
235 236 -233 0
33 68 -238 0
-33 68 238 0
33 -68 238 0
-33 -68 -238 0
238 233 -103 0
-238 233 103 0
238 -233 103 0
-238 -233 -103 0
233 -239 0
238 -239 0
-233 -238 239 0
68 -240 0
33 -240 0
-68 -33 240 0
-239 237 0
-240 237 0
239 240 -237 0
34 69 -242 0
-34 69 242 0
34 -69 242 0
-34 -69 -242 0
242 237 -104 0
-242 237 104 0
242 -237 104 0
-242 -237 -104 0
237 -243 0
242 -243 0
-237 -242 243 0
69 -244 0
34 -244 0
-69 -34 244 0
-243 241 0
-244 241 0
243 244 -241 0
35 70 -245 0
-35 70 245 0
35 -70 245 0
-35 -70 -245 0
245 241 -105 0
-245 241 105 0
245 -241 105 0
-245 -241 -105 0
241 -246 0
245 -246 0
-241 -245 246 0
70 -247 0
35 -247 0
-70 -35 247 0
-246 106 0
-247 106 0
246 247 -106 0
